31
19
0
97
81
120
0
45
32
16
63
43
56
61
69
69
51
139
35
46
62
448
63
28
43
53
66
50
20
82
0
244
61
18
43
85
15
35
24
20
24
100
211
75
62
632
17
15
335
51
25
72
22
28
23
26
169
19
57
18
0
0
88
0
56
57
200
90
20
116
93
12
93
345
188
114
186
359
29
29
75
34
38
20
324
56
82
41
17
41
0
0
43
53
0
92
142
50
223
15
